<?xml version="1.0" encoding="UTF-8"?><osil xmlns="os.optimizationservices.org"   xmlns:xsi="http://www.w3.org/2001/XMLSchema-instance" xsi:schemaLocation="os.optimizationservices.org http://www.optimizationservices.org/schemas/2.0/OSiL.xsd" ><instanceHeader><name>q_20_4_75_1</name></instanceHeader><instanceData><variables numberOfVariables="20"><var name="x1" ub="1"/><var name="x2" ub="1"/><var name="x3" ub="1"/><var name="x4" ub="1"/><var name="x5" ub="1"/><var name="x6" ub="1"/><var name="x7" ub="1"/><var name="x8" ub="1"/><var name="x9" ub="1"/><var name="x10" ub="1"/><var name="x11" ub="1"/><var name="x12" ub="1"/><var name="x13" ub="1"/><var name="x14" ub="1"/><var name="x15" ub="1"/><var name="x16" ub="1"/><var name="x17" ub="1"/><var name="x18" ub="1"/><var name="x19" ub="1"/><var name="x20" ub="1"/></variables><objectives numberOfObjectives="1"><obj maxOrMin="min" name="defObj_x21" numberOfObjCoef="20"><coef idx="0">2.19e-2</coef><coef idx="1">9.7e-3</coef><coef idx="2">.9235</coef><coef idx="3">.1005</coef><coef idx="4">-.6207</coef><coef idx="5">-.5978</coef><coef idx="6">-.5025</coef><coef idx="7">.9402</coef><coef idx="8">.5528</coef><coef idx="9">-.4546</coef><coef idx="10">-6.1e-3</coef><coef idx="11">-.2025</coef><coef idx="12">.2266</coef><coef idx="13">-.8295</coef><coef idx="14">.474</coef><coef idx="15">.7257</coef><coef idx="16">-.3179</coef><coef idx="17">.3889</coef><coef idx="18">.2838</coef><coef idx="19">-.829</coef></obj></objectives><constraints numberOfConstraints="4"><con name="e2" ub="42.147"/><con name="e3" ub="23.177"/><con name="e4" ub="92.761"/><con name="e5" ub="26.24"/></constraints><linearConstraintCoefficients numberOfValues="80"><start><el mult="5" incr="20">0</el></start><colIdx><el mult="20" incr="1">0</el><el mult="20" incr="1">0</el><el mult="20" incr="1">0</el><el mult="20" incr="1">0</el></colIdx><value><el>.4277</el><el>.8057</el><el>.5147</el><el>7.85e-2</el><el>.2918</el><el>.5539</el><el>.758</el><el>.2055</el><el>-.877</el><el>-.1218</el><el>-.9826</el><el>-.4008</el><el>.947</el><el>.9103</el><el>-.5734</el><el>.3479</el><el>7.23e-2</el><el>-.2806</el><el>-.9973</el><el>.6989</el><el>-.3318</el><el>-.3304</el><el>8.6e-3</el><el>-.2382</el><el>.7865</el><el>-.4775</el><el>-1.12e-2</el><el>.4793</el><el>.2361</el><el>.3537</el><el>.4693</el><el>.7316</el><el>.3182</el><el>.8041</el><el>-.4561</el><el>.8676</el><el>-.7196</el><el>-.3273</el><el>-5.17e-2</el><el>-.9975</el><el>-.6058</el><el>.503</el><el>-4.62e-2</el><el>-.717</el><el>2.53e-2</el><el>-.9476</el><el>-.3171</el><el>.5691</el><el>-.3612</el><el>4.88e-2</el><el>.423</el><el>.2762</el><el>2.21e-2</el><el>.3975</el><el>-.5281</el><el>-.722</el><el>-.1433</el><el>.1957</el><el>.7882</el><el>.9988</el><el>-.7994</el><el>.6868</el><el>.4518</el><el>.8514</el><el>.6759</el><el>-.6871</el><el>.6584</el><el>-.2458</el><el>.6472</el><el>-.3359</el><el>-.863</el><el>.1233</el><el>.6612</el><el>.2013</el><el>.6938</el><el>-.7642</el><el>.3951</el><el>-.3524</el><el>-.9741</el><el>.6833</el></value></linearConstraintCoefficients><quadraticCoefficients  numberOfQuadraticTerms="550" ><qTerm  idx="-1"  idxOne="0"  idxTwo="0"  coef=".3767"/><qTerm  idx="-1"  idxOne="0"  idxTwo="5"  coef="-.3868"/><qTerm  idx="-1"  idxOne="0"  idxTwo="7"  coef=".4704"/><qTerm  idx="-1"  idxOne="0"  idxTwo="8"  coef=".5043"/><qTerm  idx="-1"  idxOne="0"  idxTwo="9"  coef="-.2086"/><qTerm  idx="-1"  idxOne="0"  idxTwo="10"  coef="-.8244"/><qTerm  idx="-1"  idxOne="0"  idxTwo="13"  coef="-.9021"/><qTerm  idx="-1"  idxOne="0"  idxTwo="14"  coef=".5587"/><qTerm  idx="-1"  idxOne="0"  idxTwo="16"  coef=".3616"/><qTerm  idx="-1"  idxOne="0"  idxTwo="17"  coef="-.3769"/><qTerm  idx="-1"  idxOne="0"  idxTwo="18"  coef="4.55e-2"/><qTerm  idx="-1"  idxOne="0"  idxTwo="19"  coef="1.16e-2"/><qTerm  idx="-1"  idxOne="1"  idxTwo="1"  coef="-.1229"/><qTerm  idx="-1"  idxOne="1"  idxTwo="4"  coef=".1753"/><qTerm  idx="-1"  idxOne="1"  idxTwo="6"  coef="-.4053"/><qTerm  idx="-1"  idxOne="1"  idxTwo="7"  coef="-.4102"/><qTerm  idx="-1"  idxOne="1"  idxTwo="8"  coef="-.8524"/><qTerm  idx="-1"  idxOne="1"  idxTwo="10"  coef=".9499"/><qTerm  idx="-1"  idxOne="1"  idxTwo="11"  coef=".4563"/><qTerm  idx="-1"  idxOne="1"  idxTwo="12"  coef=".5162"/><qTerm  idx="-1"  idxOne="1"  idxTwo="14"  coef="-.3816"/><qTerm  idx="-1"  idxOne="1"  idxTwo="15"  coef="-.507"/><qTerm  idx="-1"  idxOne="1"  idxTwo="17"  coef="-.4862"/><qTerm  idx="-1"  idxOne="1"  idxTwo="18"  coef=".2361"/><qTerm  idx="-1"  idxOne="1"  idxTwo="19"  coef=".8756"/><qTerm  idx="-1"  idxOne="2"  idxTwo="2"  coef=".9844"/><qTerm  idx="-1"  idxOne="2"  idxTwo="3"  coef="-.5504"/><qTerm  idx="-1"  idxOne="2"  idxTwo="5"  coef=".8946"/><qTerm  idx="-1"  idxOne="2"  idxTwo="6"  coef=".6956"/><qTerm  idx="-1"  idxOne="2"  idxTwo="7"  coef=".4003"/><qTerm  idx="-1"  idxOne="2"  idxTwo="8"  coef=".1089"/><qTerm  idx="-1"  idxOne="2"  idxTwo="9"  coef="-.1168"/><qTerm  idx="-1"  idxOne="2"  idxTwo="11"  coef="-.5016"/><qTerm  idx="-1"  idxOne="2"  idxTwo="13"  coef=".7953"/><qTerm  idx="-1"  idxOne="2"  idxTwo="15"  coef="-.7085"/><qTerm  idx="-1"  idxOne="2"  idxTwo="16"  coef="-.1308"/><qTerm  idx="-1"  idxOne="2"  idxTwo="17"  coef="-8.52e-2"/><qTerm  idx="-1"  idxOne="3"  idxTwo="3"  coef="-.3812"/><qTerm  idx="-1"  idxOne="3"  idxTwo="8"  coef="-3.82e-2"/><qTerm  idx="-1"  idxOne="3"  idxTwo="9"  coef=".3795"/><qTerm  idx="-1"  idxOne="3"  idxTwo="10"  coef=".6216"/><qTerm  idx="-1"  idxOne="3"  idxTwo="14"  coef="-.2157"/><qTerm  idx="-1"  idxOne="3"  idxTwo="15"  coef="-.4137"/><qTerm  idx="-1"  idxOne="3"  idxTwo="16"  coef=".152"/><qTerm  idx="-1"  idxOne="3"  idxTwo="17"  coef=".4507"/><qTerm  idx="-1"  idxOne="3"  idxTwo="19"  coef="-.7145"/><qTerm  idx="-1"  idxOne="4"  idxTwo="4"  coef="-.3329"/><qTerm  idx="-1"  idxOne="4"  idxTwo="6"  coef="-.6792"/><qTerm  idx="-1"  idxOne="4"  idxTwo="7"  coef="6.92e-2"/><qTerm  idx="-1"  idxOne="4"  idxTwo="9"  coef=".4467"/><qTerm  idx="-1"  idxOne="4"  idxTwo="10"  coef="-.5436"/><qTerm  idx="-1"  idxOne="4"  idxTwo="12"  coef="-.602"/><qTerm  idx="-1"  idxOne="4"  idxTwo="13"  coef=".9452"/><qTerm  idx="-1"  idxOne="4"  idxTwo="14"  coef=".9871"/><qTerm  idx="-1"  idxOne="4"  idxTwo="15"  coef="-.8361"/><qTerm  idx="-1"  idxOne="4"  idxTwo="17"  coef="-.4982"/><qTerm  idx="-1"  idxOne="4"  idxTwo="19"  coef="-.5683"/><qTerm  idx="-1"  idxOne="5"  idxTwo="5"  coef="-.6084"/><qTerm  idx="-1"  idxOne="5"  idxTwo="7"  coef=".7005"/><qTerm  idx="-1"  idxOne="5"  idxTwo="8"  coef="-.9106"/><qTerm  idx="-1"  idxOne="5"  idxTwo="9"  coef=".7278"/><qTerm  idx="-1"  idxOne="5"  idxTwo="11"  coef="-.8657"/><qTerm  idx="-1"  idxOne="5"  idxTwo="14"  coef="-.1454"/><qTerm  idx="-1"  idxOne="5"  idxTwo="15"  coef="-.7254"/><qTerm  idx="-1"  idxOne="5"  idxTwo="17"  coef="-.7618"/><qTerm  idx="-1"  idxOne="5"  idxTwo="19"  coef="-.3881"/><qTerm  idx="-1"  idxOne="6"  idxTwo="6"  coef=".2265"/><qTerm  idx="-1"  idxOne="6"  idxTwo="8"  coef=".3273"/><qTerm  idx="-1"  idxOne="6"  idxTwo="10"  coef=".7918"/><qTerm  idx="-1"  idxOne="6"  idxTwo="13"  coef=".5074"/><qTerm  idx="-1"  idxOne="6"  idxTwo="16"  coef=".2597"/><qTerm  idx="-1"  idxOne="6"  idxTwo="19"  coef="-.558"/><qTerm  idx="-1"  idxOne="7"  idxTwo="12"  coef="-3.23e-2"/><qTerm  idx="-1"  idxOne="7"  idxTwo="13"  coef=".23"/><qTerm  idx="-1"  idxOne="7"  idxTwo="18"  coef=".9753"/><qTerm  idx="-1"  idxOne="7"  idxTwo="19"  coef=".1184"/><qTerm  idx="-1"  idxOne="8"  idxTwo="9"  coef="-.2582"/><qTerm  idx="-1"  idxOne="8"  idxTwo="10"  coef="-.3248"/><qTerm  idx="-1"  idxOne="8"  idxTwo="11"  coef=".4909"/><qTerm  idx="-1"  idxOne="8"  idxTwo="12"  coef=".1395"/><qTerm  idx="-1"  idxOne="8"  idxTwo="15"  coef="-8.77e-2"/><qTerm  idx="-1"  idxOne="9"  idxTwo="11"  coef=".2964"/><qTerm  idx="-1"  idxOne="9"  idxTwo="13"  coef=".3672"/><qTerm  idx="-1"  idxOne="9"  idxTwo="16"  coef="-.6592"/><qTerm  idx="-1"  idxOne="9"  idxTwo="17"  coef="-.4539"/><qTerm  idx="-1"  idxOne="9"  idxTwo="18"  coef="-.1185"/><qTerm  idx="-1"  idxOne="9"  idxTwo="19"  coef="-8.46e-2"/><qTerm  idx="-1"  idxOne="10"  idxTwo="10"  coef="-.2095"/><qTerm  idx="-1"  idxOne="10"  idxTwo="12"  coef=".3767"/><qTerm  idx="-1"  idxOne="10"  idxTwo="15"  coef="-.4022"/><qTerm  idx="-1"  idxOne="10"  idxTwo="17"  coef="-.5895"/><qTerm  idx="-1"  idxOne="10"  idxTwo="19"  coef="-.6154"/><qTerm  idx="-1"  idxOne="11"  idxTwo="11"  coef="-.162"/><qTerm  idx="-1"  idxOne="11"  idxTwo="12"  coef=".3813"/><qTerm  idx="-1"  idxOne="11"  idxTwo="14"  coef="-.7189"/><qTerm  idx="-1"  idxOne="11"  idxTwo="17"  coef="-.7125"/><qTerm  idx="-1"  idxOne="11"  idxTwo="18"  coef=".3249"/><qTerm  idx="-1"  idxOne="12"  idxTwo="19"  coef=".1514"/><qTerm  idx="-1"  idxOne="13"  idxTwo="15"  coef=".5499"/><qTerm  idx="-1"  idxOne="13"  idxTwo="16"  coef=".5506"/><qTerm  idx="-1"  idxOne="14"  idxTwo="15"  coef=".5307"/><qTerm  idx="-1"  idxOne="14"  idxTwo="17"  coef=".753"/><qTerm  idx="-1"  idxOne="15"  idxTwo="15"  coef="-.8016"/><qTerm  idx="-1"  idxOne="15"  idxTwo="17"  coef="-.331"/><qTerm  idx="-1"  idxOne="15"  idxTwo="18"  coef=".2902"/><qTerm  idx="-1"  idxOne="15"  idxTwo="19"  coef="-.7368"/><qTerm  idx="-1"  idxOne="16"  idxTwo="17"  coef=".6151"/><qTerm  idx="-1"  idxOne="17"  idxTwo="17"  coef="8.37e-2"/><qTerm  idx="-1"  idxOne="17"  idxTwo="18"  coef="-.4685"/><qTerm  idx="-1"  idxOne="18"  idxTwo="18"  coef="-8.23e-2"/><qTerm  idx="0"  idxOne="0"  idxTwo="0"  coef="-8.9e-3"/><qTerm  idx="0"  idxOne="0"  idxTwo="1"  coef=".4723"/><qTerm  idx="0"  idxOne="0"  idxTwo="2"  coef="-.9209"/><qTerm  idx="0"  idxOne="0"  idxTwo="3"  coef="-.9687"/><qTerm  idx="0"  idxOne="0"  idxTwo="5"  coef="-4.3e-2"/><qTerm  idx="0"  idxOne="0"  idxTwo="8"  coef=".5532"/><qTerm  idx="0"  idxOne="0"  idxTwo="10"  coef=".8139"/><qTerm  idx="0"  idxOne="0"  idxTwo="13"  coef=".8304"/><qTerm  idx="0"  idxOne="0"  idxTwo="14"  coef="-.3323"/><qTerm  idx="0"  idxOne="0"  idxTwo="15"  coef="-.4014"/><qTerm  idx="0"  idxOne="0"  idxTwo="16"  coef=".6574"/><qTerm  idx="0"  idxOne="0"  idxTwo="19"  coef="-8.13e-2"/><qTerm  idx="0"  idxOne="1"  idxTwo="2"  coef="-.9703"/><qTerm  idx="0"  idxOne="1"  idxTwo="3"  coef="-.3218"/><qTerm  idx="0"  idxOne="1"  idxTwo="5"  coef="-.8836"/><qTerm  idx="0"  idxOne="1"  idxTwo="6"  coef="-.8145"/><qTerm  idx="0"  idxOne="1"  idxTwo="7"  coef=".3035"/><qTerm  idx="0"  idxOne="1"  idxTwo="9"  coef="-.2096"/><qTerm  idx="0"  idxOne="1"  idxTwo="10"  coef=".2399"/><qTerm  idx="0"  idxOne="1"  idxTwo="11"  coef=".6504"/><qTerm  idx="0"  idxOne="1"  idxTwo="12"  coef="-.3218"/><qTerm  idx="0"  idxOne="1"  idxTwo="15"  coef="-.3831"/><qTerm  idx="0"  idxOne="1"  idxTwo="16"  coef="-.2782"/><qTerm  idx="0"  idxOne="1"  idxTwo="19"  coef="-.1766"/><qTerm  idx="0"  idxOne="2"  idxTwo="2"  coef="-7.81e-2"/><qTerm  idx="0"  idxOne="2"  idxTwo="3"  coef="-.2352"/><qTerm  idx="0"  idxOne="2"  idxTwo="6"  coef=".2862"/><qTerm  idx="0"  idxOne="2"  idxTwo="8"  coef="-.5167"/><qTerm  idx="0"  idxOne="2"  idxTwo="9"  coef=".4314"/><qTerm  idx="0"  idxOne="2"  idxTwo="11"  coef=".7136"/><qTerm  idx="0"  idxOne="2"  idxTwo="13"  coef="-.6721"/><qTerm  idx="0"  idxOne="2"  idxTwo="15"  coef=".4626"/><qTerm  idx="0"  idxOne="2"  idxTwo="17"  coef="1.98e-2"/><qTerm  idx="0"  idxOne="2"  idxTwo="18"  coef="-.4397"/><qTerm  idx="0"  idxOne="2"  idxTwo="19"  coef=".9861"/><qTerm  idx="0"  idxOne="3"  idxTwo="3"  coef=".5225"/><qTerm  idx="0"  idxOne="3"  idxTwo="4"  coef="-.9346"/><qTerm  idx="0"  idxOne="3"  idxTwo="5"  coef=".4133"/><qTerm  idx="0"  idxOne="3"  idxTwo="6"  coef=".3442"/><qTerm  idx="0"  idxOne="3"  idxTwo="8"  coef="-.8199"/><qTerm  idx="0"  idxOne="3"  idxTwo="11"  coef="-7.76e-2"/><qTerm  idx="0"  idxOne="3"  idxTwo="14"  coef="-.4723"/><qTerm  idx="0"  idxOne="3"  idxTwo="17"  coef="-.289"/><qTerm  idx="0"  idxOne="3"  idxTwo="18"  coef=".4463"/><qTerm  idx="0"  idxOne="4"  idxTwo="7"  coef="-.9454"/><qTerm  idx="0"  idxOne="4"  idxTwo="11"  coef=".1697"/><qTerm  idx="0"  idxOne="4"  idxTwo="13"  coef=".3885"/><qTerm  idx="0"  idxOne="4"  idxTwo="18"  coef="-.7786"/><qTerm  idx="0"  idxOne="4"  idxTwo="19"  coef="5.25e-2"/><qTerm  idx="0"  idxOne="5"  idxTwo="5"  coef=".9874"/><qTerm  idx="0"  idxOne="5"  idxTwo="8"  coef=".4525"/><qTerm  idx="0"  idxOne="5"  idxTwo="9"  coef=".521"/><qTerm  idx="0"  idxOne="5"  idxTwo="10"  coef="-.5928"/><qTerm  idx="0"  idxOne="5"  idxTwo="11"  coef=".7265"/><qTerm  idx="0"  idxOne="5"  idxTwo="14"  coef="-.615"/><qTerm  idx="0"  idxOne="5"  idxTwo="15"  coef="-.8237"/><qTerm  idx="0"  idxOne="6"  idxTwo="7"  coef="-.5174"/><qTerm  idx="0"  idxOne="6"  idxTwo="8"  coef=".821"/><qTerm  idx="0"  idxOne="6"  idxTwo="9"  coef=".6597"/><qTerm  idx="0"  idxOne="6"  idxTwo="11"  coef="-.8449"/><qTerm  idx="0"  idxOne="6"  idxTwo="15"  coef=".743"/><qTerm  idx="0"  idxOne="6"  idxTwo="16"  coef=".1144"/><qTerm  idx="0"  idxOne="7"  idxTwo="7"  coef="-.2056"/><qTerm  idx="0"  idxOne="7"  idxTwo="8"  coef=".9986"/><qTerm  idx="0"  idxOne="7"  idxTwo="9"  coef=".54"/><qTerm  idx="0"  idxOne="7"  idxTwo="11"  coef=".5713"/><qTerm  idx="0"  idxOne="7"  idxTwo="14"  coef=".5068"/><qTerm  idx="0"  idxOne="8"  idxTwo="8"  coef=".1204"/><qTerm  idx="0"  idxOne="8"  idxTwo="9"  coef=".3888"/><qTerm  idx="0"  idxOne="8"  idxTwo="10"  coef=".7512"/><qTerm  idx="0"  idxOne="8"  idxTwo="11"  coef="-.9713"/><qTerm  idx="0"  idxOne="8"  idxTwo="12"  coef="-.4285"/><qTerm  idx="0"  idxOne="8"  idxTwo="17"  coef="-.6373"/><qTerm  idx="0"  idxOne="9"  idxTwo="9"  coef=".6154"/><qTerm  idx="0"  idxOne="9"  idxTwo="10"  coef=".1051"/><qTerm  idx="0"  idxOne="9"  idxTwo="11"  coef="-2.83e-2"/><qTerm  idx="0"  idxOne="9"  idxTwo="12"  coef="7.35e-2"/><qTerm  idx="0"  idxOne="9"  idxTwo="14"  coef="-.9093"/><qTerm  idx="0"  idxOne="9"  idxTwo="16"  coef="-.7123"/><qTerm  idx="0"  idxOne="9"  idxTwo="17"  coef=".5603"/><qTerm  idx="0"  idxOne="10"  idxTwo="10"  coef=".5412"/><qTerm  idx="0"  idxOne="10"  idxTwo="11"  coef="-.6809"/><qTerm  idx="0"  idxOne="10"  idxTwo="14"  coef="-6.21e-2"/><qTerm  idx="0"  idxOne="10"  idxTwo="17"  coef="-.674"/><qTerm  idx="0"  idxOne="11"  idxTwo="14"  coef="9.77e-2"/><qTerm  idx="0"  idxOne="11"  idxTwo="16"  coef="-.3899"/><qTerm  idx="0"  idxOne="11"  idxTwo="18"  coef="-.6912"/><qTerm  idx="0"  idxOne="11"  idxTwo="19"  coef=".15"/><qTerm  idx="0"  idxOne="12"  idxTwo="12"  coef="-.7118"/><qTerm  idx="0"  idxOne="12"  idxTwo="13"  coef="-.6134"/><qTerm  idx="0"  idxOne="12"  idxTwo="15"  coef=".3822"/><qTerm  idx="0"  idxOne="12"  idxTwo="17"  coef=".9004"/><qTerm  idx="0"  idxOne="12"  idxTwo="18"  coef="-.7372"/><qTerm  idx="0"  idxOne="12"  idxTwo="19"  coef=".42"/><qTerm  idx="0"  idxOne="13"  idxTwo="13"  coef="-.2405"/><qTerm  idx="0"  idxOne="13"  idxTwo="14"  coef="-.204"/><qTerm  idx="0"  idxOne="13"  idxTwo="15"  coef="-.998"/><qTerm  idx="0"  idxOne="13"  idxTwo="18"  coef="-.1736"/><qTerm  idx="0"  idxOne="13"  idxTwo="19"  coef=".6076"/><qTerm  idx="0"  idxOne="14"  idxTwo="18"  coef=".7557"/><qTerm  idx="0"  idxOne="14"  idxTwo="19"  coef="-.7184"/><qTerm  idx="0"  idxOne="15"  idxTwo="16"  coef="-.9139"/><qTerm  idx="0"  idxOne="15"  idxTwo="17"  coef=".1313"/><qTerm  idx="0"  idxOne="15"  idxTwo="18"  coef="-.8836"/><qTerm  idx="0"  idxOne="15"  idxTwo="19"  coef=".7427"/><qTerm  idx="0"  idxOne="16"  idxTwo="17"  coef="-.3114"/><qTerm  idx="0"  idxOne="16"  idxTwo="18"  coef="-2.03e-2"/><qTerm  idx="0"  idxOne="16"  idxTwo="19"  coef="-.4356"/><qTerm  idx="0"  idxOne="17"  idxTwo="17"  coef="-.5229"/><qTerm  idx="0"  idxOne="18"  idxTwo="18"  coef="9.93e-2"/><qTerm  idx="1"  idxOne="0"  idxTwo="0"  coef="-.8504"/><qTerm  idx="1"  idxOne="0"  idxTwo="1"  coef=".6624"/><qTerm  idx="1"  idxOne="0"  idxTwo="2"  coef="-.1745"/><qTerm  idx="1"  idxOne="0"  idxTwo="3"  coef=".3241"/><qTerm  idx="1"  idxOne="0"  idxTwo="6"  coef="-.4919"/><qTerm  idx="1"  idxOne="0"  idxTwo="7"  coef="-3.39e-2"/><qTerm  idx="1"  idxOne="0"  idxTwo="8"  coef=".2248"/><qTerm  idx="1"  idxOne="0"  idxTwo="9"  coef=".366"/><qTerm  idx="1"  idxOne="0"  idxTwo="10"  coef="-.1987"/><qTerm  idx="1"  idxOne="0"  idxTwo="12"  coef="-.5784"/><qTerm  idx="1"  idxOne="0"  idxTwo="13"  coef=".8198"/><qTerm  idx="1"  idxOne="0"  idxTwo="15"  coef="-4.86e-2"/><qTerm  idx="1"  idxOne="0"  idxTwo="17"  coef=".7126"/><qTerm  idx="1"  idxOne="0"  idxTwo="18"  coef=".8337"/><qTerm  idx="1"  idxOne="1"  idxTwo="1"  coef="3.08e-2"/><qTerm  idx="1"  idxOne="1"  idxTwo="2"  coef=".4378"/><qTerm  idx="1"  idxOne="1"  idxTwo="8"  coef="-.4249"/><qTerm  idx="1"  idxOne="1"  idxTwo="9"  coef="-.876"/><qTerm  idx="1"  idxOne="1"  idxTwo="13"  coef="-.247"/><qTerm  idx="1"  idxOne="1"  idxTwo="14"  coef="-.482"/><qTerm  idx="1"  idxOne="1"  idxTwo="15"  coef="8.08e-2"/><qTerm  idx="1"  idxOne="1"  idxTwo="16"  coef="6.87e-2"/><qTerm  idx="1"  idxOne="1"  idxTwo="18"  coef="-.9379"/><qTerm  idx="1"  idxOne="2"  idxTwo="3"  coef="-.1556"/><qTerm  idx="1"  idxOne="2"  idxTwo="5"  coef="-.1534"/><qTerm  idx="1"  idxOne="2"  idxTwo="6"  coef=".2972"/><qTerm  idx="1"  idxOne="2"  idxTwo="11"  coef="-.682"/><qTerm  idx="1"  idxOne="2"  idxTwo="13"  coef="-.2246"/><qTerm  idx="1"  idxOne="3"  idxTwo="6"  coef=".2078"/><qTerm  idx="1"  idxOne="3"  idxTwo="8"  coef="8.01e-2"/><qTerm  idx="1"  idxOne="3"  idxTwo="9"  coef=".412"/><qTerm  idx="1"  idxOne="3"  idxTwo="10"  coef="-.7653"/><qTerm  idx="1"  idxOne="3"  idxTwo="11"  coef=".7097"/><qTerm  idx="1"  idxOne="4"  idxTwo="7"  coef=".1609"/><qTerm  idx="1"  idxOne="4"  idxTwo="9"  coef="4.63e-2"/><qTerm  idx="1"  idxOne="4"  idxTwo="11"  coef="-4.9e-2"/><qTerm  idx="1"  idxOne="4"  idxTwo="12"  coef="-.9321"/><qTerm  idx="1"  idxOne="4"  idxTwo="13"  coef=".5337"/><qTerm  idx="1"  idxOne="4"  idxTwo="14"  coef=".6369"/><qTerm  idx="1"  idxOne="4"  idxTwo="15"  coef="-.8873"/><qTerm  idx="1"  idxOne="4"  idxTwo="16"  coef="-.5746"/><qTerm  idx="1"  idxOne="4"  idxTwo="19"  coef=".4865"/><qTerm  idx="1"  idxOne="5"  idxTwo="10"  coef="-.3803"/><qTerm  idx="1"  idxOne="5"  idxTwo="12"  coef="-.7699"/><qTerm  idx="1"  idxOne="5"  idxTwo="14"  coef=".7363"/><qTerm  idx="1"  idxOne="5"  idxTwo="15"  coef="-.2812"/><qTerm  idx="1"  idxOne="5"  idxTwo="16"  coef=".8172"/><qTerm  idx="1"  idxOne="5"  idxTwo="18"  coef="-.5754"/><qTerm  idx="1"  idxOne="6"  idxTwo="6"  coef="-.2821"/><qTerm  idx="1"  idxOne="6"  idxTwo="7"  coef="-.8113"/><qTerm  idx="1"  idxOne="6"  idxTwo="8"  coef=".3038"/><qTerm  idx="1"  idxOne="6"  idxTwo="9"  coef=".8093"/><qTerm  idx="1"  idxOne="6"  idxTwo="10"  coef=".5277"/><qTerm  idx="1"  idxOne="6"  idxTwo="11"  coef=".7849"/><qTerm  idx="1"  idxOne="6"  idxTwo="13"  coef=".6706"/><qTerm  idx="1"  idxOne="6"  idxTwo="17"  coef="1.52e-2"/><qTerm  idx="1"  idxOne="6"  idxTwo="18"  coef="-9.e-3"/><qTerm  idx="1"  idxOne="6"  idxTwo="19"  coef="8.2e-3"/><qTerm  idx="1"  idxOne="7"  idxTwo="7"  coef=".5372"/><qTerm  idx="1"  idxOne="7"  idxTwo="8"  coef="-.2333"/><qTerm  idx="1"  idxOne="7"  idxTwo="9"  coef="-.8164"/><qTerm  idx="1"  idxOne="7"  idxTwo="10"  coef=".8521"/><qTerm  idx="1"  idxOne="7"  idxTwo="11"  coef=".4163"/><qTerm  idx="1"  idxOne="7"  idxTwo="13"  coef=".6625"/><qTerm  idx="1"  idxOne="7"  idxTwo="14"  coef=".6022"/><qTerm  idx="1"  idxOne="7"  idxTwo="16"  coef=".1782"/><qTerm  idx="1"  idxOne="7"  idxTwo="17"  coef=".63"/><qTerm  idx="1"  idxOne="7"  idxTwo="18"  coef=".4385"/><qTerm  idx="1"  idxOne="7"  idxTwo="19"  coef=".9963"/><qTerm  idx="1"  idxOne="8"  idxTwo="9"  coef=".8737"/><qTerm  idx="1"  idxOne="8"  idxTwo="10"  coef=".382"/><qTerm  idx="1"  idxOne="8"  idxTwo="15"  coef=".4417"/><qTerm  idx="1"  idxOne="8"  idxTwo="16"  coef=".2669"/><qTerm  idx="1"  idxOne="8"  idxTwo="17"  coef=".7712"/><qTerm  idx="1"  idxOne="8"  idxTwo="18"  coef=".5226"/><qTerm  idx="1"  idxOne="8"  idxTwo="19"  coef=".3681"/><qTerm  idx="1"  idxOne="9"  idxTwo="14"  coef=".7255"/><qTerm  idx="1"  idxOne="9"  idxTwo="15"  coef="-.4059"/><qTerm  idx="1"  idxOne="9"  idxTwo="16"  coef=".9658"/><qTerm  idx="1"  idxOne="9"  idxTwo="17"  coef="-.8057"/><qTerm  idx="1"  idxOne="9"  idxTwo="18"  coef=".2716"/><qTerm  idx="1"  idxOne="10"  idxTwo="10"  coef="-.8667"/><qTerm  idx="1"  idxOne="10"  idxTwo="11"  coef="-.6541"/><qTerm  idx="1"  idxOne="10"  idxTwo="15"  coef="-7.23e-2"/><qTerm  idx="1"  idxOne="10"  idxTwo="17"  coef="-.1218"/><qTerm  idx="1"  idxOne="10"  idxTwo="18"  coef=".6082"/><qTerm  idx="1"  idxOne="10"  idxTwo="19"  coef="-.1423"/><qTerm  idx="1"  idxOne="11"  idxTwo="11"  coef=".5249"/><qTerm  idx="1"  idxOne="11"  idxTwo="14"  coef=".4167"/><qTerm  idx="1"  idxOne="11"  idxTwo="15"  coef="-.507"/><qTerm  idx="1"  idxOne="11"  idxTwo="16"  coef=".8024"/><qTerm  idx="1"  idxOne="11"  idxTwo="17"  coef="-.8732"/><qTerm  idx="1"  idxOne="12"  idxTwo="12"  coef="-.9641"/><qTerm  idx="1"  idxOne="12"  idxTwo="15"  coef=".8948"/><qTerm  idx="1"  idxOne="12"  idxTwo="19"  coef="-2.28e-2"/><qTerm  idx="1"  idxOne="13"  idxTwo="15"  coef="-.2308"/><qTerm  idx="1"  idxOne="13"  idxTwo="18"  coef="-.8365"/><qTerm  idx="1"  idxOne="14"  idxTwo="14"  coef="-4.07e-2"/><qTerm  idx="1"  idxOne="14"  idxTwo="17"  coef="-.6009"/><qTerm  idx="1"  idxOne="14"  idxTwo="19"  coef="-.2916"/><qTerm  idx="1"  idxOne="15"  idxTwo="15"  coef="-.1374"/><qTerm  idx="1"  idxOne="15"  idxTwo="19"  coef=".8125"/><qTerm  idx="1"  idxOne="16"  idxTwo="16"  coef=".8725"/><qTerm  idx="1"  idxOne="16"  idxTwo="17"  coef=".4909"/><qTerm  idx="1"  idxOne="16"  idxTwo="19"  coef=".9356"/><qTerm  idx="1"  idxOne="17"  idxTwo="17"  coef=".7571"/><qTerm  idx="1"  idxOne="17"  idxTwo="18"  coef="-.4834"/><qTerm  idx="1"  idxOne="17"  idxTwo="19"  coef=".5875"/><qTerm  idx="1"  idxOne="18"  idxTwo="19"  coef="-.8418"/><qTerm  idx="1"  idxOne="19"  idxTwo="19"  coef="-.9637"/><qTerm  idx="2"  idxOne="0"  idxTwo="0"  coef="8.58e-2"/><qTerm  idx="2"  idxOne="0"  idxTwo="1"  coef="-.2714"/><qTerm  idx="2"  idxOne="0"  idxTwo="2"  coef="-.8232"/><qTerm  idx="2"  idxOne="0"  idxTwo="3"  coef="-.1146"/><qTerm  idx="2"  idxOne="0"  idxTwo="4"  coef=".9703"/><qTerm  idx="2"  idxOne="0"  idxTwo="7"  coef=".9858"/><qTerm  idx="2"  idxOne="0"  idxTwo="10"  coef=".859"/><qTerm  idx="2"  idxOne="0"  idxTwo="12"  coef="2.64e-2"/><qTerm  idx="2"  idxOne="0"  idxTwo="14"  coef="-.8325"/><qTerm  idx="2"  idxOne="0"  idxTwo="15"  coef="-.2402"/><qTerm  idx="2"  idxOne="0"  idxTwo="16"  coef=".9962"/><qTerm  idx="2"  idxOne="0"  idxTwo="18"  coef="-.612"/><qTerm  idx="2"  idxOne="0"  idxTwo="19"  coef="-.7468"/><qTerm  idx="2"  idxOne="1"  idxTwo="3"  coef=".5066"/><qTerm  idx="2"  idxOne="1"  idxTwo="7"  coef=".5209"/><qTerm  idx="2"  idxOne="1"  idxTwo="8"  coef="-.8096"/><qTerm  idx="2"  idxOne="1"  idxTwo="10"  coef=".2097"/><qTerm  idx="2"  idxOne="1"  idxTwo="12"  coef="-.8223"/><qTerm  idx="2"  idxOne="1"  idxTwo="13"  coef=".8219"/><qTerm  idx="2"  idxOne="1"  idxTwo="15"  coef=".8915"/><qTerm  idx="2"  idxOne="1"  idxTwo="17"  coef=".4384"/><qTerm  idx="2"  idxOne="1"  idxTwo="19"  coef="1.04e-2"/><qTerm  idx="2"  idxOne="2"  idxTwo="6"  coef="-.6145"/><qTerm  idx="2"  idxOne="2"  idxTwo="7"  coef=".3569"/><qTerm  idx="2"  idxOne="2"  idxTwo="8"  coef="-8.35e-2"/><qTerm  idx="2"  idxOne="2"  idxTwo="9"  coef="-.1778"/><qTerm  idx="2"  idxOne="2"  idxTwo="10"  coef=".1688"/><qTerm  idx="2"  idxOne="2"  idxTwo="12"  coef="-.6302"/><qTerm  idx="2"  idxOne="2"  idxTwo="14"  coef="5.73e-2"/><qTerm  idx="2"  idxOne="2"  idxTwo="15"  coef=".8851"/><qTerm  idx="2"  idxOne="2"  idxTwo="16"  coef=".9515"/><qTerm  idx="2"  idxOne="2"  idxTwo="17"  coef="-6.04e-2"/><qTerm  idx="2"  idxOne="2"  idxTwo="19"  coef="-.8915"/><qTerm  idx="2"  idxOne="3"  idxTwo="3"  coef="-9.68e-2"/><qTerm  idx="2"  idxOne="3"  idxTwo="5"  coef="-.5954"/><qTerm  idx="2"  idxOne="3"  idxTwo="6"  coef="-.902"/><qTerm  idx="2"  idxOne="3"  idxTwo="7"  coef=".9315"/><qTerm  idx="2"  idxOne="3"  idxTwo="10"  coef=".4294"/><qTerm  idx="2"  idxOne="3"  idxTwo="11"  coef=".7398"/><qTerm  idx="2"  idxOne="3"  idxTwo="13"  coef="-.6759"/><qTerm  idx="2"  idxOne="3"  idxTwo="14"  coef="-1.66e-2"/><qTerm  idx="2"  idxOne="3"  idxTwo="18"  coef=".3176"/><qTerm  idx="2"  idxOne="4"  idxTwo="4"  coef="-.434"/><qTerm  idx="2"  idxOne="4"  idxTwo="5"  coef="-.8219"/><qTerm  idx="2"  idxOne="4"  idxTwo="8"  coef="-.9323"/><qTerm  idx="2"  idxOne="4"  idxTwo="11"  coef="-.2384"/><qTerm  idx="2"  idxOne="4"  idxTwo="12"  coef=".2604"/><qTerm  idx="2"  idxOne="4"  idxTwo="13"  coef=".4567"/><qTerm  idx="2"  idxOne="4"  idxTwo="14"  coef=".7508"/><qTerm  idx="2"  idxOne="4"  idxTwo="15"  coef=".1384"/><qTerm  idx="2"  idxOne="4"  idxTwo="16"  coef="-.5557"/><qTerm  idx="2"  idxOne="4"  idxTwo="19"  coef="-.2385"/><qTerm  idx="2"  idxOne="5"  idxTwo="6"  coef="1.99e-2"/><qTerm  idx="2"  idxOne="5"  idxTwo="7"  coef=".7632"/><qTerm  idx="2"  idxOne="5"  idxTwo="10"  coef="-.9947"/><qTerm  idx="2"  idxOne="5"  idxTwo="12"  coef="-.3877"/><qTerm  idx="2"  idxOne="5"  idxTwo="14"  coef=".8177"/><qTerm  idx="2"  idxOne="5"  idxTwo="16"  coef="-.3725"/><qTerm  idx="2"  idxOne="5"  idxTwo="17"  coef="-.3487"/><qTerm  idx="2"  idxOne="5"  idxTwo="18"  coef="-.8521"/><qTerm  idx="2"  idxOne="5"  idxTwo="19"  coef=".7201"/><qTerm  idx="2"  idxOne="6"  idxTwo="6"  coef="-.9411"/><qTerm  idx="2"  idxOne="6"  idxTwo="9"  coef="-.6075"/><qTerm  idx="2"  idxOne="6"  idxTwo="12"  coef=".4446"/><qTerm  idx="2"  idxOne="6"  idxTwo="16"  coef="-.6889"/><qTerm  idx="2"  idxOne="6"  idxTwo="18"  coef=".5368"/><qTerm  idx="2"  idxOne="7"  idxTwo="7"  coef=".9675"/><qTerm  idx="2"  idxOne="7"  idxTwo="8"  coef="-.1386"/><qTerm  idx="2"  idxOne="7"  idxTwo="9"  coef="-.4474"/><qTerm  idx="2"  idxOne="7"  idxTwo="13"  coef="-.8875"/><qTerm  idx="2"  idxOne="7"  idxTwo="14"  coef="-.7171"/><qTerm  idx="2"  idxOne="7"  idxTwo="16"  coef="-.2179"/><qTerm  idx="2"  idxOne="7"  idxTwo="18"  coef="-.317"/><qTerm  idx="2"  idxOne="7"  idxTwo="19"  coef="-3.32e-2"/><qTerm  idx="2"  idxOne="8"  idxTwo="8"  coef="-.625"/><qTerm  idx="2"  idxOne="8"  idxTwo="9"  coef=".2913"/><qTerm  idx="2"  idxOne="8"  idxTwo="10"  coef="7.55e-2"/><qTerm  idx="2"  idxOne="8"  idxTwo="17"  coef="-1.78e-2"/><qTerm  idx="2"  idxOne="8"  idxTwo="18"  coef="-.215"/><qTerm  idx="2"  idxOne="9"  idxTwo="9"  coef="-.7588"/><qTerm  idx="2"  idxOne="9"  idxTwo="12"  coef=".2416"/><qTerm  idx="2"  idxOne="9"  idxTwo="14"  coef="-.1383"/><qTerm  idx="2"  idxOne="9"  idxTwo="15"  coef=".2175"/><qTerm  idx="2"  idxOne="9"  idxTwo="17"  coef="-.5311"/><qTerm  idx="2"  idxOne="9"  idxTwo="19"  coef="-.6322"/><qTerm  idx="2"  idxOne="10"  idxTwo="10"  coef="-.8211"/><qTerm  idx="2"  idxOne="10"  idxTwo="12"  coef="-.2421"/><qTerm  idx="2"  idxOne="10"  idxTwo="15"  coef="-.9794"/><qTerm  idx="2"  idxOne="10"  idxTwo="16"  coef=".6866"/><qTerm  idx="2"  idxOne="10"  idxTwo="19"  coef=".144"/><qTerm  idx="2"  idxOne="11"  idxTwo="14"  coef=".935"/><qTerm  idx="2"  idxOne="11"  idxTwo="15"  coef="-.7224"/><qTerm  idx="2"  idxOne="11"  idxTwo="17"  coef="-.79"/><qTerm  idx="2"  idxOne="12"  idxTwo="16"  coef="-.6261"/><qTerm  idx="2"  idxOne="12"  idxTwo="18"  coef="-.59"/><qTerm  idx="2"  idxOne="12"  idxTwo="19"  coef=".8708"/><qTerm  idx="2"  idxOne="13"  idxTwo="14"  coef=".5423"/><qTerm  idx="2"  idxOne="13"  idxTwo="15"  coef=".3356"/><qTerm  idx="2"  idxOne="13"  idxTwo="16"  coef=".142"/><qTerm  idx="2"  idxOne="13"  idxTwo="19"  coef=".5119"/><qTerm  idx="2"  idxOne="14"  idxTwo="15"  coef=".7599"/><qTerm  idx="2"  idxOne="14"  idxTwo="17"  coef="-.4022"/><qTerm  idx="2"  idxOne="15"  idxTwo="16"  coef=".4446"/><qTerm  idx="2"  idxOne="15"  idxTwo="18"  coef="-.8166"/><qTerm  idx="2"  idxOne="16"  idxTwo="16"  coef=".6446"/><qTerm  idx="2"  idxOne="16"  idxTwo="17"  coef="-.1284"/><qTerm  idx="2"  idxOne="16"  idxTwo="19"  coef="-.3651"/><qTerm  idx="2"  idxOne="17"  idxTwo="19"  coef="-.2567"/><qTerm  idx="2"  idxOne="18"  idxTwo="19"  coef=".1421"/><qTerm  idx="2"  idxOne="19"  idxTwo="19"  coef="-.8825"/><qTerm  idx="3"  idxOne="0"  idxTwo="0"  coef="-.1588"/><qTerm  idx="3"  idxOne="0"  idxTwo="3"  coef="-.6343"/><qTerm  idx="3"  idxOne="0"  idxTwo="4"  coef=".7847"/><qTerm  idx="3"  idxOne="0"  idxTwo="6"  coef=".2423"/><qTerm  idx="3"  idxOne="0"  idxTwo="7"  coef="-.357"/><qTerm  idx="3"  idxOne="0"  idxTwo="8"  coef="-.2066"/><qTerm  idx="3"  idxOne="0"  idxTwo="9"  coef="-.1247"/><qTerm  idx="3"  idxOne="0"  idxTwo="11"  coef="-.9086"/><qTerm  idx="3"  idxOne="0"  idxTwo="13"  coef="-.4053"/><qTerm  idx="3"  idxOne="0"  idxTwo="16"  coef="-.6526"/><qTerm  idx="3"  idxOne="0"  idxTwo="17"  coef="-.7753"/><qTerm  idx="3"  idxOne="0"  idxTwo="18"  coef=".6139"/><qTerm  idx="3"  idxOne="1"  idxTwo="1"  coef="6.06e-2"/><qTerm  idx="3"  idxOne="1"  idxTwo="3"  coef="-.4917"/><qTerm  idx="3"  idxOne="1"  idxTwo="6"  coef=".82"/><qTerm  idx="3"  idxOne="1"  idxTwo="13"  coef="-.8487"/><qTerm  idx="3"  idxOne="1"  idxTwo="18"  coef="-.4958"/><qTerm  idx="3"  idxOne="2"  idxTwo="2"  coef="-.4949"/><qTerm  idx="3"  idxOne="2"  idxTwo="4"  coef=".7862"/><qTerm  idx="3"  idxOne="2"  idxTwo="5"  coef=".7091"/><qTerm  idx="3"  idxOne="2"  idxTwo="8"  coef="-.6288"/><qTerm  idx="3"  idxOne="2"  idxTwo="9"  coef=".7083"/><qTerm  idx="3"  idxOne="2"  idxTwo="12"  coef=".4814"/><qTerm  idx="3"  idxOne="2"  idxTwo="13"  coef=".1703"/><qTerm  idx="3"  idxOne="2"  idxTwo="15"  coef=".511"/><qTerm  idx="3"  idxOne="2"  idxTwo="16"  coef=".9122"/><qTerm  idx="3"  idxOne="2"  idxTwo="17"  coef=".1772"/><qTerm  idx="3"  idxOne="2"  idxTwo="18"  coef=".6143"/><qTerm  idx="3"  idxOne="2"  idxTwo="19"  coef="3.51e-2"/><qTerm  idx="3"  idxOne="3"  idxTwo="3"  coef="-.6117"/><qTerm  idx="3"  idxOne="3"  idxTwo="4"  coef=".6903"/><qTerm  idx="3"  idxOne="3"  idxTwo="6"  coef=".8105"/><qTerm  idx="3"  idxOne="3"  idxTwo="7"  coef=".3583"/><qTerm  idx="3"  idxOne="3"  idxTwo="8"  coef=".296"/><qTerm  idx="3"  idxOne="3"  idxTwo="10"  coef=".6876"/><qTerm  idx="3"  idxOne="3"  idxTwo="11"  coef="-.393"/><qTerm  idx="3"  idxOne="3"  idxTwo="12"  coef="-.3819"/><qTerm  idx="3"  idxOne="3"  idxTwo="15"  coef="-.3434"/><qTerm  idx="3"  idxOne="3"  idxTwo="18"  coef=".498"/><qTerm  idx="3"  idxOne="3"  idxTwo="19"  coef=".3344"/><qTerm  idx="3"  idxOne="4"  idxTwo="4"  coef="-.6604"/><qTerm  idx="3"  idxOne="4"  idxTwo="5"  coef=".1448"/><qTerm  idx="3"  idxOne="4"  idxTwo="6"  coef="-.2679"/><qTerm  idx="3"  idxOne="4"  idxTwo="7"  coef="-.9699"/><qTerm  idx="3"  idxOne="4"  idxTwo="9"  coef=".4874"/><qTerm  idx="3"  idxOne="4"  idxTwo="10"  coef="-.2642"/><qTerm  idx="3"  idxOne="4"  idxTwo="12"  coef="6.11e-2"/><qTerm  idx="3"  idxOne="4"  idxTwo="16"  coef=".1584"/><qTerm  idx="3"  idxOne="5"  idxTwo="5"  coef="-.3937"/><qTerm  idx="3"  idxOne="5"  idxTwo="8"  coef=".9029"/><qTerm  idx="3"  idxOne="5"  idxTwo="10"  coef="-.3443"/><qTerm  idx="3"  idxOne="5"  idxTwo="11"  coef=".1484"/><qTerm  idx="3"  idxOne="5"  idxTwo="13"  coef=".4433"/><qTerm  idx="3"  idxOne="5"  idxTwo="18"  coef=".3218"/><qTerm  idx="3"  idxOne="5"  idxTwo="19"  coef="-.2226"/><qTerm  idx="3"  idxOne="6"  idxTwo="10"  coef=".3904"/><qTerm  idx="3"  idxOne="6"  idxTwo="12"  coef=".6146"/><qTerm  idx="3"  idxOne="6"  idxTwo="13"  coef="-.8245"/><qTerm  idx="3"  idxOne="6"  idxTwo="15"  coef=".8728"/><qTerm  idx="3"  idxOne="6"  idxTwo="16"  coef="-.3059"/><qTerm  idx="3"  idxOne="6"  idxTwo="19"  coef=".8877"/><qTerm  idx="3"  idxOne="7"  idxTwo="7"  coef=".1024"/><qTerm  idx="3"  idxOne="7"  idxTwo="9"  coef=".1653"/><qTerm  idx="3"  idxOne="7"  idxTwo="10"  coef="-.3166"/><qTerm  idx="3"  idxOne="7"  idxTwo="13"  coef=".13"/><qTerm  idx="3"  idxOne="7"  idxTwo="14"  coef="-.4146"/><qTerm  idx="3"  idxOne="7"  idxTwo="15"  coef="-1.27e-2"/><qTerm  idx="3"  idxOne="7"  idxTwo="19"  coef=".4993"/><qTerm  idx="3"  idxOne="8"  idxTwo="8"  coef=".6925"/><qTerm  idx="3"  idxOne="8"  idxTwo="10"  coef="-6.77e-2"/><qTerm  idx="3"  idxOne="8"  idxTwo="12"  coef="-.2175"/><qTerm  idx="3"  idxOne="8"  idxTwo="13"  coef=".828"/><qTerm  idx="3"  idxOne="8"  idxTwo="15"  coef="-.1967"/><qTerm  idx="3"  idxOne="8"  idxTwo="16"  coef=".4211"/><qTerm  idx="3"  idxOne="8"  idxTwo="17"  coef="-.2497"/><qTerm  idx="3"  idxOne="8"  idxTwo="19"  coef=".462"/><qTerm  idx="3"  idxOne="9"  idxTwo="9"  coef="-.7244"/><qTerm  idx="3"  idxOne="9"  idxTwo="10"  coef=".5054"/><qTerm  idx="3"  idxOne="9"  idxTwo="11"  coef="-.6719"/><qTerm  idx="3"  idxOne="9"  idxTwo="12"  coef=".2062"/><qTerm  idx="3"  idxOne="9"  idxTwo="16"  coef=".4854"/><qTerm  idx="3"  idxOne="10"  idxTwo="11"  coef="-.8001"/><qTerm  idx="3"  idxOne="10"  idxTwo="12"  coef=".4813"/><qTerm  idx="3"  idxOne="10"  idxTwo="13"  coef="-.2475"/><qTerm  idx="3"  idxOne="11"  idxTwo="11"  coef=".659"/><qTerm  idx="3"  idxOne="11"  idxTwo="12"  coef="-.8335"/><qTerm  idx="3"  idxOne="11"  idxTwo="14"  coef=".2203"/><qTerm  idx="3"  idxOne="11"  idxTwo="17"  coef=".8903"/><qTerm  idx="3"  idxOne="11"  idxTwo="18"  coef="-.7647"/><qTerm  idx="3"  idxOne="11"  idxTwo="19"  coef=".5881"/><qTerm  idx="3"  idxOne="12"  idxTwo="16"  coef="-.3864"/><qTerm  idx="3"  idxOne="12"  idxTwo="17"  coef="-.5257"/><qTerm  idx="3"  idxOne="12"  idxTwo="18"  coef="-.5672"/><qTerm  idx="3"  idxOne="12"  idxTwo="19"  coef="-5.89e-2"/><qTerm  idx="3"  idxOne="13"  idxTwo="13"  coef="-.1993"/><qTerm  idx="3"  idxOne="13"  idxTwo="15"  coef="-.4537"/><qTerm  idx="3"  idxOne="13"  idxTwo="18"  coef=".7725"/><qTerm  idx="3"  idxOne="14"  idxTwo="15"  coef=".1709"/><qTerm  idx="3"  idxOne="14"  idxTwo="16"  coef="-6.76e-2"/><qTerm  idx="3"  idxOne="15"  idxTwo="15"  coef="-.6013"/><qTerm  idx="3"  idxOne="15"  idxTwo="17"  coef=".8428"/><qTerm  idx="3"  idxOne="15"  idxTwo="18"  coef="-.6915"/><qTerm  idx="3"  idxOne="16"  idxTwo="16"  coef=".8838"/><qTerm  idx="3"  idxOne="16"  idxTwo="18"  coef=".9223"/><qTerm  idx="3"  idxOne="16"  idxTwo="19"  coef=".5193"/><qTerm  idx="3"  idxOne="17"  idxTwo="17"  coef=".3182"/><qTerm  idx="3"  idxOne="17"  idxTwo="18"  coef="-.221"/><qTerm  idx="3"  idxOne="17"  idxTwo="19"  coef=".6815"/><qTerm  idx="3"  idxOne="18"  idxTwo="18"  coef="-9.66e-2"/><qTerm  idx="3"  idxOne="19"  idxTwo="19"  coef="-.1797"/></quadraticCoefficients></instanceData></osil>
